10
1
2
3
4
14
5
6
7
8
9
18
17
16
15
32
40
57
56
65
74
73
75
76
85
84
83
82
91
92
93
94
86
95
96
97
98
99
90
89
87
88
79
78
77
68
67
66
64
55
46
47
48
39
38
29
37
28
19
20
11
12
13
23
24
25
26
27
35
36
44
45
54
63
72
81
80
69
70
71
62
61
60
59
58
49
50
51
52
53
42
43
34
33
41
31
30
21
22
10
